n = 10;

R =
[|0,3,3,3,5,5,5,5,5,0,
 |1,0,1,0,0,0,1,2,2,0,
 |0,0,0,0,3,3,3,0,4,0,
 |0,0,4,0,4,4,4,4,4,0,
 |0,0,4,2,3,0,0,0,4,0,
 |0,0,4,2,3,0,1,1,4,0,
 |0,0,4,0,3,0,1,3,0,0,
 |0,0,4,4,4,4,0,3,0,0,
 |0,0,2,2,0,0,0,3,1,0,
 |0,0,0,0,0,0,0,0,1,0,
 |];

